c Generated map
c Size: 8 * 8, weights in range: 1 to 10, walls: True, with ratio 0.05
c dim 10 of 10
c
p sp 64 100
c graph contains 64 nodes and 100 arcs
c
a 1 9 9
a 9 1 9
a 1 2 8
a 2 1 8
a 2 10 2
a 10 2 2
a 2 3 6
a 3 2 6
a 3 11 7
a 11 3 7
a 3 4 8
a 4 3 8
a 4 12 4
a 12 4 4
a 4 5 4
a 5 4 4
a 5 13 3
a 13 5 3
a 5 6 6
a 6 5 6
a 6 14 10
a 14 6 10
a 6 7 1
a 7 6 1
a 7 15 4
a 15 7 4
a 7 8 1
a 8 7 1
a 8 16 4
a 16 8 4
a 9 17 7
a 17 9 7
a 9 10 5
a 10 9 5
a 10 18 7
a 18 10 7
a 10 11 10
a 11 10 10
a 11 12 9
a 12 11 9
a 12 20 9
a 20 12 9
a 12 13 7
a 13 12 7
a 13 14 9
a 14 13 9
a 14 22 5
a 22 14 5
a 14 15 2
a 15 14 2
a 15 23 10
a 23 15 10
a 15 16 3
a 16 15 3
a 16 24 8
a 24 16 8
a 17 25 1
a 25 17 1
a 17 18 7
a 18 17 7
a 18 26 5
a 26 18 5
a 20 28 1
a 28 20 1
a 22 30 7
a 30 22 7
a 22 23 6
a 23 22 6
a 23 31 1
a 31 23 1
a 23 24 9
a 24 23 9
a 24 32 6
a 32 24 6
a 25 33 8
a 33 25 8
a 25 26 1
a 26 25 1
a 26 34 2
a 34 26 2
a 26 27 6
a 27 26 6
a 27 35 8
a 35 27 8
a 27 28 7
a 28 27 7
a 28 36 3
a 36 28 3
a 28 29 1
a 29 28 1
a 29 37 10
a 37 29 10
a 29 30 4
a 30 29 4
a 30 38 1
a 38 30 1
a 30 31 3
a 31 30 3
a 31 39 9
a 39 31 9
a 31 32 9
a 32 31 9
a 32 40 2
a 40 32 2
a 33 41 5
a 41 33 5
a 33 34 8
a 34 33 8
a 34 42 3
a 42 34 3
a 34 35 8
a 35 34 8
a 35 43 1
a 43 35 1
a 35 36 3
a 36 35 3
a 36 44 8
a 44 36 8
a 36 37 2
a 37 36 2
a 37 45 1
a 45 37 1
a 37 38 10
a 38 37 10
a 38 39 6
a 39 38 6
a 39 47 2
a 47 39 2
a 39 40 10
a 40 39 10
a 40 48 5
a 48 40 5
a 41 49 9
a 49 41 9
a 41 42 5
a 42 41 5
a 42 50 3
a 50 42 3
a 42 43 3
a 43 42 3
a 43 51 5
a 51 43 5
a 43 44 6
a 44 43 6
a 44 52 5
a 52 44 5
a 44 45 9
a 45 44 9
a 45 53 7
a 53 45 7
a 47 55 1
a 55 47 1
a 47 48 3
a 48 47 3
a 48 56 1
a 56 48 1
a 49 57 8
a 57 49 8
a 49 50 5
a 50 49 5
a 50 58 10
a 58 50 10
a 50 51 2
a 51 50 2
a 51 59 9
a 59 51 9
a 51 52 7
a 52 51 7
a 52 60 5
a 60 52 5
a 52 53 4
a 53 52 4
a 53 61 9
a 61 53 9
a 53 54 3
a 54 53 3
a 54 62 5
a 62 54 5
a 54 55 7
a 55 54 7
a 55 63 4
a 63 55 4
a 55 56 4
a 56 55 4
a 56 64 8
a 64 56 8
a 57 58 6
a 58 57 6
a 58 59 8
a 59 58 8
a 59 60 9
a 60 59 9
a 60 61 10
a 61 60 10
a 61 62 9
a 62 61 9
a 62 63 2
a 63 62 2
a 63 64 7
a 64 63 7
